# Solution for model GasLib-40
# Objective value = 1.3786799362814225e+01
loadshed[innode_1] 0
loadshed[innode_2] 0
loadshed[innode_3] 0
loadshed[innode_4] 0
loadshed[innode_5] 0
loadshed[innode_6] 0
loadshed[innode_7] 0
loadshed[innode_8] 0
loadshed[source_1] -2.4269904357536110e-01
loadshed[source_2] -6.9895506803499874e-02
loadshed[source_3] 3.9980294520612780e-01
loadshed[sink_1] 0
loadshed[sink_2] 0
loadshed[sink_3] 0
loadshed[sink_4] 0
loadshed[sink_5] 0
loadshed[sink_6] 0
loadshed[sink_7] 0
loadshed[sink_8] 0
loadshed[sink_9] 0
loadshed[sink_10] 0
loadshed[sink_11] 0
loadshed[sink_12] 8.4301448333131557e-01
loadshed[sink_13] 0
loadshed[sink_14] 0
loadshed[sink_15] 0
loadshed[sink_16] 0
loadshed[sink_17] 0
loadshed[sink_18] 0
loadshed[sink_19] 0
loadshed[sink_20] 0
loadshed[sink_21] 0
loadshed[sink_22] 0
loadshed[sink_23] 0
loadshed[sink_24] 0
loadshed[sink_25] 0
loadshed[sink_26] 0
loadshed[sink_27] 0
loadshed[sink_28] 0
loadshed[sink_29] 0
flow[source_1,sink_3] 1.9645863699300759e+02
flow[innode_1,sink_16] 1.6354166666666970e+01
flow[innode_6,sink_13] 1.9593847552912436e+01
flow[sink_13,sink_14] 3.2396808862457682e+00
flow[sink_14,sink_10] -13.1144857804209
flow[sink_25,sink_26] 2.3152570063718591e+02
flow[sink_26,sink_9] 1.3040570973776252e+02
flow[sink_9,sink_18] 1.1405154307109585e+02
flow[sink_26,sink_4] 8.4765824232756671e+01
flow[sink_4,sink_20] 2.2777608948364765e+01
flow[sink_18,sink_6] 9.7697376404429178e+01
flow[sink_25,innode_8] -1.6375030365967120e+02
flow[sink_6,sink_7] 4.8634876404428724e+01
flow[sink_6,sink_22] 3.2708333333333641e+01
flow[sink_7,sink_24] 3.5275700637185778e+01
flow[sink_22,sink_1] 1.6354166666666970e+01
flow[sink_24,sink_21] 1.8921533970519111e+01
flow[sink_21,sink_12] 2.5673673038524432e+00
flow[sink_7,sink_5] -2.9949908994234846e+00
flow[sink_5,sink_17] -1.9349157566090071e+01
flow[sink_17,sink_4] -4.5634048617725249e+01
flow[sink_17,sink_8] 9.93072438496857
flow[sink_3,sink_23] 16.3541666666697
flow[sink_8,sink_20] -6.4234422816980441e+00
flow[sink_25,sink_20] 0
flow[sink_25,sink_15] -1.0372341119709374e+02
flow[sink_15,sink_29] -6.6467618948336650e+01
flow[sink_29,sink_28] 1.6354166666667879e+01
flow[sink_29,sink_2] 6.9964125582090432e+01
flow[sink_2,sink_15] 5.3609958915423761e+01
flow[sink_29,innode_7] -1.6914007786376163e+02
flow[innode_4,sink_19] 7.8531152447087663e+01
flow[sink_19,innode_3] 0
flow[innode_4,innode_5] 1.6354166666679703e+01
flow[sink_27,innode_5] -1.6354166666679703e+01
flow[sink_27,sink_19] 0
flow[sink_10,sink_11] 3.2708333333333641e+01
flow[sink_10,innode_2] -6.2176985780421091e+01
flow[sink_10,innode_3] 0
flow[innode_6,sink_25] -1.9593847552912436e+01
flow[sink_11,innode_1] 1.6354166666666970e+01
flow[sink_19,innode_2] 6.2176985780421091e+01
flow[source_3,innode_4] 9.4885319113767366e+01
flow[source_2,innode_7] 1.6914007786376163e+02
flow[sink_3,innode_8] 1.6375030365967120e+02
pressure[innode_1] 7.4393741110391019e+01
pressure[innode_2] 7.7831752915851581e+01
pressure[innode_3] 7.4545442417994565e+01
pressure[innode_4] 81.01325
pressure[innode_5] 8.1002000741808786e+01
pressure[innode_6] 7.4038960947262211e+01
pressure[innode_7] 81.01325
pressure[innode_8] 8.0356563826451961e+01
pressure[source_1] 81.01325
pressure[source_2] 81.01325
pressure[source_3] 81.01325
pressure[sink_1] 4.1091010319137418e+01
pressure[sink_2] 7.4717145262338960e+01
pressure[sink_3] 8.0356563826451961e+01
pressure[sink_4] 4.6955395542189507e+01
pressure[sink_5] 4.3770040298698277e+01
pressure[sink_6] 4.3192087929524789e+01
pressure[sink_7] 4.2524447004491478e+01
pressure[sink_8] 4.4836700647211622e+01
pressure[sink_9] 4.9927623523211913e+01
pressure[sink_10] 7.4545442417994565e+01
pressure[sink_11] 7.4393741110391019e+01
pressure[sink_12] 1.01325
pressure[sink_13] 7.3930943340139123e+01
pressure[sink_14] 73.9251456552334
pressure[sink_15] 7.4542120561924733e+01
pressure[sink_16] 7.3372091275573339e+01
pressure[sink_17] 4.5211412677644020e+01
pressure[sink_18] 4.5800898762839523e+01
pressure[sink_19] 7.7831752915851581e+01
pressure[sink_20] 4.5284324239636149e+01
pressure[sink_21] 1.9268597992705661e+00
pressure[sink_22] 4.2154779461492424e+01
pressure[sink_23] 8.0191845814792174e+01
pressure[sink_24] 2.1363982077923507e+00
pressure[sink_25] 7.4038960947262211e+01
pressure[sink_26] 5.7732741818889011e+01
pressure[sink_27] 8.0866291377726043e+01
pressure[sink_28] 7.6194133249020965e+01
pressure[sink_29] 7.6489415522638140e+01
interdiction[source_1,sink_3] 0
interdiction[innode_1,sink_16] 0
interdiction[innode_6,sink_13] 0
interdiction[sink_13,sink_14] 0
interdiction[sink_14,sink_10] 0
interdiction[sink_25,sink_26] 0
interdiction[sink_26,sink_9] 0
interdiction[sink_9,sink_18] 0
interdiction[sink_26,sink_4] 0
interdiction[sink_4,sink_20] 0
interdiction[sink_18,sink_6] 0
interdiction[sink_25,innode_8] 0
interdiction[sink_6,sink_7] 0
interdiction[sink_6,sink_22] 0
interdiction[sink_7,sink_24] 0
interdiction[sink_22,sink_1] 0
interdiction[sink_24,sink_21] 0
interdiction[sink_21,sink_12] 0
interdiction[sink_7,sink_5] 0
interdiction[sink_5,sink_17] 0
interdiction[sink_17,sink_4] 0
interdiction[sink_17,sink_8] 0
interdiction[sink_3,sink_23] 0
interdiction[sink_8,sink_20] 0
interdiction[sink_25,sink_20] 1
interdiction[sink_25,sink_15] 0
interdiction[sink_15,sink_29] 0
interdiction[sink_29,sink_28] 0
interdiction[sink_29,sink_2] 0
interdiction[sink_2,sink_15] 0
interdiction[sink_29,innode_7] 0
interdiction[innode_4,sink_19] 0
interdiction[sink_19,innode_3] 1
interdiction[innode_4,innode_5] 0
interdiction[sink_27,innode_5] 0
interdiction[sink_27,sink_19] 1
interdiction[sink_10,sink_11] 0
interdiction[sink_10,innode_2] 0
interdiction[sink_10,innode_3] 0
interdiction[innode_6,sink_25] 0
interdiction[sink_11,innode_1] 0
interdiction[sink_19,innode_2] 0
interdiction[source_3,innode_4] 0
interdiction[source_2,innode_7] 0
interdiction[sink_3,innode_8] 0
WCcheckFlow[source_1,sink_3] 39
WCcheckFlow[innode_1,sink_16] 1
WCcheckFlow[innode_6,sink_13] 13
WCcheckFlow[sink_13,sink_14] 12
WCcheckFlow[sink_14,sink_10] 11
WCcheckFlow[sink_25,sink_26] 15
WCcheckFlow[sink_26,sink_9] 12
WCcheckFlow[sink_9,sink_18] 11
WCcheckFlow[sink_26,sink_4] 2
WCcheckFlow[sink_4,sink_20] 1
WCcheckFlow[sink_18,sink_6] 10
WCcheckFlow[sink_25,innode_8] -36
WCcheckFlow[sink_6,sink_7] 7
WCcheckFlow[sink_6,sink_22] 2
WCcheckFlow[sink_7,sink_24] 3
WCcheckFlow[sink_22,sink_1] 1
WCcheckFlow[sink_24,sink_21] 2
WCcheckFlow[sink_21,sink_12] 1
WCcheckFlow[sink_7,sink_5] 3
WCcheckFlow[sink_5,sink_17] 2
WCcheckFlow[sink_17,sink_4] 0
WCcheckFlow[sink_17,sink_8] 1
WCcheckFlow[sink_3,sink_23] 1
WCcheckFlow[sink_8,sink_20] 0
WCcheckFlow[sink_25,sink_20] 0
WCcheckFlow[sink_25,sink_15] 6
WCcheckFlow[sink_15,sink_29] 5
WCcheckFlow[sink_29,sink_28] 1
WCcheckFlow[sink_29,sink_2] 1
WCcheckFlow[sink_2,sink_15] 0
WCcheckFlow[sink_29,innode_7] 2
WCcheckFlow[innode_4,sink_19] -4
WCcheckFlow[sink_19,innode_3] 0
WCcheckFlow[innode_4,innode_5] 2
WCcheckFlow[sink_27,innode_5] -1
WCcheckFlow[sink_27,sink_19] 0
WCcheckFlow[sink_10,sink_11] 3
WCcheckFlow[sink_10,innode_2] 6
WCcheckFlow[sink_10,innode_3] 1
WCcheckFlow[innode_6,sink_25] -14
WCcheckFlow[sink_11,innode_1] 2
WCcheckFlow[sink_19,innode_2] -5
WCcheckFlow[source_3,innode_4] -1
WCcheckFlow[source_2,innode_7] -1
WCcheckFlow[sink_3,innode_8] 37
